500
1000
266
266
265
265
263
263
263
262
262
261
261
261
261
261
259
259
258
257
256
256
255
254
254
253
253
253
252
252
251
250
250
249
248
248
247
246
246
246
246
245
245
244
244
244
244
243
242
242
242
242
242
241
241
240
239
238
237
237
235
235
235
234
234
233
232
232
230
229
229
229
228
228
227
227
227
227
226
226
226
225
225
223
221
221
221
221
221
221
220
220
220
220
219
219
219
218
218
218
217
217
217
215
215
215
214
214
212
210
210
209
209
209
209
209
208
207
205
205
205
204
204
204
203
203
203
202
201
201
201
201
201
201
200
200
199
199
198
198
198
198
198
198
197
196
195
195
194
194
193
193
193
192
192
191
190
189
189
188
188
188
187
186
185
185
184
183
182
182
181
181
180
180
179
179
179
179
178
177
176
176
175
175
174
173
173
173
173
172
172
172
171
170
170
169
169
169
168
167
165
165
165
165
164
163
163
161
161
160
160
159
159
159
159
158
158
157
156
156
155
155
154
154
153
153
152
151
150
150
149
149
149
147
147
147
147
147
146
146
146
144
143
143
143
143
142
142
141
141
140
140
139
138
137
137
136
136
136
135
135
133
133
131
131
131
131
130
130
130
130
129
129
129
128
127
127
126
125
124
124
123
122
122
122
121
120
120
120
120
119
119
119
118
117
117
117
117
117
116
116
116
115
115
114
114
114
113
112
112
111
111
110
110
109
109
107
107
107
107
106
105
105
105
105
104
103
103
103
102
102
102
102
101
101
101
101
100
100
100
99
99
98
98
96
96
96
94
93
92
91
91
91
91
90
90
90
90
89
89
89
88
88
87
87
87
87
87
85
84
83
82
82
82
81
81
80
80
79
79
78
78
78
78
77
76
76
76
75
74
74
73
71
69
69
69
68
68
68
68
66
66
66
66
64
63
63
62
62
62
61
60
60
59
59
59
58
58
58
58
57
56
56
55
55
55
55
54
54
54
53
53
53
53
52
52
52
51
49
49
49
49
49
49
48
47
47
47
45
43
43
42
42
42
42
42
41
41
40
40
39
39
39
39
38
37
37
35
33
33
33
32
32
31
29
28
28
27
26
26
25
24
24
24
23
23
22
22
21
21
20
20
19
18
18
18
18
17
17
16
16
16
